z3_origin/matrix-1-all-16.txt
sat
(:elim-unconstrained  1
 :max-memory          18.72
 :memory              18.42
 :nlsat-arith-var     49
 :nlsat-atoms         220
 :nlsat-bool-var      38
 :nlsat-clauses       141
 :nlsat-conflicts     146
 :nlsat-decisions     14
 :nlsat-propagations  1196
 :nlsat-stages        325
 :num-allocs          144752
 :rlimit-count        35520
 :solve-eqs-elim-vars 1
 :solve-eqs-steps     1
 :time                0.02
 :total-time          0.03)
